\ This file has been generated by DOcplex
\ ENCODING=ISO-8859-1
\Problem name: random_problem.lp

Minimize
 obj: x0 - 4 x1 - 10 x2 + 3 x3 - 7 x4 - 3 x5 + 10 x6 + 9 x8 + 7 x9 - 3 x10
      - 6 x11 - 3 x12 + 9 x13 - 7 x14 + 5 x15 - 10 x16 + 4 x17 - 5 x18 - 3 x20
      - 7 x21 - 7 x22 - 8 x24 - 3 x25 + x26 + 4 x27 + 5 x28 + 8 x29 - 10 x30
      - 7 x31 + 7 x32 + 6 x33 + 9 x35 + 10 x36 + 5 x37 + 10 x38 + 2 x39 - 5 x40
      + 8 x41 + x42 - 9 x43 + 8 x44 - 9 x45 - 4 x46 + 6 x47 - 7 x48 - 2 x49
      - 7 x50 - 9 x51 - 10 x52 + 7 x53 + 8 x54 - 4 x55 - 7 x56 - 6 x57 - 5 x58
      - 5 x59 + 3 x60 - 9 x61 - 9 x62 - 6 x63 - 8 x64 + 8 x65 - 10 x66 + 10 x67
      - 8 x68 + 7 x70 + 3 x71 + 9 x72 - 10 x73 - 7 x74 + 3 x75 - x76 + 10 x77
      + 4 x78 - 3 x79 + 5 x80 + 2 x81 + 5 x82 + 8 x83 + 2 x84 + x85 - 7 x87
      + 2 x88 + 4 x89 + 9 x90 - 8 x91 - 6 x92 - 4 x93 + 3 x94 - 2 x95 - x96
      + x97 + 5 x98 - 5 x99 + 6 x100 - 7 x101 + 7 x102 + 8 x103 - 5 x104
      - 3 x105 - 5 x106 - 4 x107 + 7 x108 + 8 x109 - 8 x110 - 2 x111 - 10 x112
      - x113 - 8 x114 + 6 x115 - 5 x116 - 5 x117 + 3 x118 - 9 x119 + 3 x120
      + 3 x121 - 8 x122 + 2 x124 + x125 - 3 x126 + x127 - 4 x128 - 8 x129
      - 7 x130 - 3 x131 + 7 x132 - 9 x134 - 7 x135 - 7 x136 + x137 + 6 x138
      + 2 x139 - 9 x140 + 4 x141 + 9 x142 - 10 x143 + 4 x144 + 2 x145 - x146
      - 7 x147 + 8 x148 + 9 x149 + 4 x150 - 6 x151 + 10 x152 + 8 x153 + 7 x154
      + 6 x155 - x156 + 3 x157 + 8 x158 - 2 x159 - 3 x160 - 5 x161 + 4 x162
      - 10 x163 + 9 x164 - 8 x165 - 2 x166 - x167 + 8 x168 + 9 x169 + 2 x170
      + 6 x171 + 7 x172 - 3 x173 + 4 x174 + 8 x175 - 3 x176 + 8 x177 + 6 x178
      + 10 x179 - x180 + 2 x181 - 5 x182 - 4 x183 + 7 x184 - 3 x185 + 6 x186
      - x187 + 10 x188 + 5 x189 - 8 x190 - 6 x191 + 2 x192 + 3 x193 - 5 x194
      - 9 x195 + x196 + 2 x197 - x198 - 3 x199 + 5 x200 - 10 x201 - 5 x202
      + x203 - 3 x204 - 10 x205 - x206 - x207 - 2 x208 + 7 x209 - 3 x210
      - 7 x211 - 4 x212 + 2 x213 + 6 x214 - 2 x215 + x216 - 10 x217 - 9 x219
      - 8 x220 + 10 x221 + 4 x222 - 5 x223 + 10 x224 - 4 x225 - 7 x226 - 8 x227
      + 4 x228 - 9 x229 - x230 - 7 x231 - 10 x232 - 3 x233 + 2 x234 + 7 x235
      + 5 x236 + 7 x237 + 5 x238 - 7 x240 - 4 x241 + 4 x242 + 9 x243 + 10 x244
      + 8 x245 + 7 x246 - 2 x247 - 9 x248 - 7 x249 + [ 16 x0*x3 - 18 x0*x47
      - 10 x0*x111 - 14 x0*x148 + 12 x0*x237 - 10 x1*x6 + 8 x1*x86 + 8 x1*x110
      - 18 x1*x159 - 16 x1*x167 + 2 x2*x13 - 8 x2*x59 + 10 x2*x65 + 8 x2*x207
      - 12 x2*x240 - 8 x3*x39 + 8 x3*x53 - 12 x3*x141 - 6 x3*x162 - 8 x4*x117
      - 12 x4*x124 - 20 x4*x125 + 2 x4*x165 - 20 x4*x217 - 2 x5*x33 + 14 x5*x74
      + 12 x5*x94 - 2 x5*x100 + 20 x5*x219 + 2 x6*x54 + 16 x6*x75 + 4 x6*x207
      - 4 x6*x226 - 12 x7*x46 - 18 x7*x108 - 4 x7*x189 + 10 x7*x208 - 16 x7*x214
      + 2 x8*x30 - 10 x8*x56 - 20 x8*x62 - 10 x8*x181 - 10 x8*x202 - 8 x9*x57
      + 14 x9*x102 + 18 x9*x143 - 8 x9*x156 + 20 x9*x198 + 10 x10*x49
      - 6 x10*x149 + 8 x10*x170 + 12 x10*x190 + 16 x10*x236 + 20 x11*x51
      + 12 x11*x66 - 6 x11*x211 - 6 x11*x216 - 20 x11*x243 - 18 x12*x18
      + 14 x12*x101 - 16 x12*x105 - 16 x12*x170 + 4 x12*x234 + 2 x13*x63
      - 10 x13*x151 - 20 x13*x183 + 14 x13*x239 + 2 x14*x77 + 14 x14*x125
      + 20 x14*x131 + 20 x14*x169 + 10 x14*x218 - 2 x15*x51 - 16 x15*x89
      + 12 x15*x109 + 10 x15*x132 + 10 x15*x186 - 8 x16*x72 - 14 x16*x107
      + 20 x16*x123 + 14 x16*x128 - 20 x16*x210 - 4 x17*x42 + 8 x17*x76
      - 4 x17*x95 - 6 x17*x106 + 4 x17*x129 - 12 x18*x80 + 8 x18*x144
      + 8 x18*x173 - 8 x18*x198 + 16 x19*x85 - 18 x19*x120 + 14 x19*x164
      + 8 x19*x202 - 14 x19*x221 + 12 x20*x81 - 6 x20*x119 + 14 x20*x150
      + 8 x20*x162 - 4 x20*x225 + 4 x21*x58 - 10 x21*x139 - 8 x21*x144
      - 18 x21*x154 - 14 x21*x208 + 12 x22*x40 + 14 x22*x54 - 14 x22*x139
      + 6 x22*x221 - 16 x22*x247 - 6 x23*x121 - 20 x23*x122 + 18 x23*x141
      - 14 x23*x226 + 6 x23*x231 - 14 x24*x90 - 14 x24*x114 + 4 x24*x137
      + 20 x24*x172 + 6 x24*x190 + 4 x25*x33 + 4 x25*x36 + 12 x25*x163
      + 14 x25*x177 + 14 x25*x202 - 4 x26*x82 - 6 x26*x106 + 6 x26*x163
      + 8 x26*x164 - 16 x26*x233 - 4 x27*x30 + 2 x27*x53 - 12 x27*x61
      - 4 x27*x164 - 16 x27*x248 - 2 x28*x42 - 8 x28*x83 - 8 x28*x98
      + 2 x28*x175 + 4 x28*x192 - 16 x29*x123 + 8 x29*x146 - 4 x29*x166
      + 10 x29*x179 - 8 x29*x236 + 14 x30*x161 + 14 x30*x182 - 10 x30*x223
      - 14 x31*x44 + 16 x31*x48 + 14 x31*x68 - 10 x31*x182 - 20 x31*x193
      + 8 x32*x130 - 4 x32*x175 - 16 x32*x199 - 16 x32*x212 + 18 x32*x220
      + 20 x33*x94 - 4 x33*x135 + 20 x33*x229 - 12 x34*x48 + 10 x34*x56
      - 18 x34*x76 + 2 x34*x136 + 6 x34*x174 - 10 x35*x93 + 14 x35*x117
      + 14 x35*x204 - 12 x35*x205 + 10 x35*x236 - 20 x36*x97 + 16 x36*x108
      + 8 x36*x149 + 16 x36*x246 + 18 x37*x65 + 4 x37*x112 + 12 x37*x117
      + 8 x37*x174 - 18 x37*x201 - 14 x38*x49 + 16 x38*x66 - 10 x38*x94
      + 20 x38*x116 - 6 x38*x176 + 8 x39*x44 - 6 x39*x115 + 16 x39*x192
      + 6 x39*x249 + 8 x40*x41 + 14 x40*x46 + 20 x40*x71 + 2 x40*x195
      - 6 x41*x97 + 12 x41*x131 - 8 x41*x147 - 12 x41*x230 - 8 x42*x94
      - 10 x42*x132 + 18 x42*x194 - 20 x43*x54 + 10 x43*x56 + 4 x43*x63
      + 20 x43*x135 + 16 x43*x212 + 14 x44*x69 - 10 x44*x91 - 18 x44*x130
      - 8 x45*x83 + 8 x45*x87 + 8 x45*x101 + 20 x45*x195 + 12 x45*x200
      + 2 x46*x59 + 20 x46*x94 - 20 x46*x180 - 18 x47*x60 - 4 x47*x163
      - 14 x47*x222 - 12 x47*x246 + 16 x48*x173 + 12 x48*x188 + 4 x48*x213
      + 4 x49*x50 - 2 x49*x143 - 14 x49*x223 + 6 x50*x84 - 14 x50*x152
      + 20 x50*x177 + 18 x50*x203 - 16 x51*x80 - 6 x51*x206 + 20 x51*x208
      - 20 x52*x103 + 14 x52*x144 - 12 x52*x157 + 16 x52*x191 - 4 x52*x204
      - 6 x53*x111 - 14 x53*x179 - 4 x53*x205 + 8 x54*x114 - 6 x54*x158
      + 12 x55*x138 - 16 x55*x152 + 10 x55*x196 - 16 x55*x218 + 18 x55*x221
      - 2 x56*x188 + 16 x56*x189 + 2 x57*x91 - 10 x57*x124 + 6 x57*x189
      - 16 x57*x209 - 2 x58*x160 + 10 x58*x163 + 20 x58*x235 - 14 x58*x249
      + 10 x59*x91 + 12 x59*x129 + 6 x59*x144 - 6 x60*x64 + 14 x60*x106
      - 2 x60*x146 - 12 x60*x238 + 6 x61*x158 - 14 x61*x178 + 20 x61*x228
      - 20 x61*x233 - 2 x62*x69 - 2 x62*x75 - 10 x62*x84 + 6 x62*x102
      + 8 x63*x66 + 18 x63*x140 + 14 x63*x224 + 14 x64*x134 + 18 x64*x235
      + 12 x64*x240 + 20 x64*x245 - 8 x65*x118 + 8 x65*x147 + 6 x65*x188
      - 2 x66*x102 - 14 x66*x239 - 12 x67*x81 + 16 x67*x102 + 10 x67*x170
      - 10 x67*x172 + 12 x67*x237 - 10 x68*x83 - 6 x68*x124 - 20 x68*x132
      + 4 x68*x247 + 6 x69*x153 - 10 x69*x185 - 16 x69*x220 + 4 x70*x95
      + 6 x70*x136 - 10 x70*x196 - 2 x70*x208 - 2 x70*x220 + 14 x71*x96
      - 8 x71*x141 + 20 x71*x198 - 4 x71*x210 + 2 x72*x86 - 16 x72*x194
      + 12 x72*x215 + 20 x72*x232 + 6 x73*x145 + 12 x73*x149 - 16 x73*x158
      - 20 x73*x178 + 2 x73*x209 - 18 x74*x92 + 12 x74*x146 - 16 x74*x191
      + 6 x74*x224 - 10 x75*x112 - 4 x75*x116 + 14 x75*x119 + 20 x76*x79
      - 20 x76*x171 + 6 x76*x174 - 8 x77*x123 + 12 x77*x155 + 16 x77*x183
      + 18 x77*x224 + 8 x78*x99 + 6 x78*x122 + 20 x78*x140 - 20 x78*x162
      + 2 x78*x173 - 8 x79*x82 + 10 x79*x104 - 4 x79*x223 + 12 x79*x234
      + 4 x80*x122 + 10 x80*x133 - 4 x80*x170 + 10 x81*x96 + 10 x81*x113
      + 10 x81*x212 + 6 x82*x105 - 12 x82*x132 - 10 x82*x142 + 2 x83*x105
      + 10 x83*x242 - 2 x84*x108 + 6 x84*x114 + 10 x84*x173 - 4 x85*x190
      - 2 x85*x230 + 8 x85*x235 - 20 x85*x239 + 12 x86*x88 + 16 x86*x146
      + 14 x86*x245 - 10 x87*x114 + 2 x87*x150 - 16 x87*x186 - 14 x87*x203
      - 14 x88*x127 + 20 x88*x143 - 20 x88*x145 - 8 x88*x148 + 4 x89*x109
      + 20 x89*x127 - 2 x89*x200 - 16 x89*x226 - 16 x90*x131 + 18 x90*x148
      - 20 x90*x150 - 8 x90*x177 - 4 x91*x186 + 10 x91*x217 + 20 x92*x100
      + 12 x92*x185 + 20 x92*x187 + 2 x92*x218 - 4 x93*x99 - 8 x93*x129
      + 6 x93*x139 + 4 x93*x202 - 14 x95*x151 + 16 x95*x169 + 14 x95*x248
      - 6 x96*x99 + 16 x96*x126 + 8 x96*x214 + 18 x97*x113 - 10 x97*x170
      + 4 x97*x244 - 20 x98*x126 + 2 x98*x155 + 12 x98*x168 - 16 x98*x194
      - 10 x99*x138 - 2 x99*x209 - 14 x100*x175 + 4 x100*x180 - 14 x100*x186
      + 16 x101*x184 - 4 x101*x231 - 10 x101*x232 + 2 x102*x223 - 20 x103*x137
      - 20 x103*x184 + 14 x103*x200 - 16 x103*x232 + 6 x104*x111 + 2 x104*x143
      - 16 x104*x161 - 18 x104*x193 + 12 x105*x110 - 6 x105*x167 - 18 x106*x191
      + 4 x106*x237 + 16 x107*x111 - 8 x107*x154 - 2 x107*x183 - 16 x107*x237
      - 20 x108*x218 + 6 x108*x229 + 4 x109*x127 + 18 x109*x130 - 16 x109*x241
      - 6 x110*x140 - 8 x110*x188 - 2 x110*x213 + 8 x111*x196 - 6 x112*x136
      + 8 x112*x172 + 10 x112*x227 - 16 x113*x152 - 6 x113*x228 + 4 x113*x248
      + 20 x114*x168 + 8 x115*x195 + 12 x115*x204 - 10 x115*x225 + 14 x115*x244
      + 16 x116*x118 - 20 x116*x137 + 10 x116*x223 + 18 x117*x162 - 12 x117*x211
      - 18 x118*x121 - 20 x118*x127 - 2 x118*x192 + 10 x119*x189 + 14 x119*x208
      + 14 x119*x243 - 20 x120*x166 - 4 x120*x197 + 16 x120*x231 + 20 x120*x244
      - 10 x121*x138 - 12 x121*x145 + 6 x121*x178 + 14 x122*x126 - 6 x122*x152
      - 8 x123*x174 + 16 x123*x198 - 18 x124*x205 + 18 x124*x236 - 20 x125*x129
      + 12 x125*x136 + 6 x125*x167 + 10 x126*x176 - 18 x126*x227 + 10 x127*x242
      + 14 x128*x141 - 14 x128*x201 - 4 x128*x243 + 2 x128*x248 + 18 x129*x229
      + 4 x130*x213 - 2 x130*x240 - 12 x131*x185 + 16 x131*x227 - 10 x132*x205
      - 6 x133*x136 + 14 x133*x160 - 10 x133*x176 - 18 x133*x183 + 16 x134*x181
      + 14 x134*x211 - 2 x134*x247 - 2 x134*x249 + 6 x135*x160 - 10 x135*x187
      - 10 x135*x224 - 18 x137*x171 + 18 x137*x241 - 14 x138*x172 - 8 x138*x179
      + 18 x139*x209 + 16 x139*x220 - 2 x140*x214 - 6 x140*x226 - 2 x141*x161
      - 4 x142*x185 + 2 x142*x200 + 18 x142*x240 - 16 x142*x244 - 18 x143*x215
      - 8 x144*x210 + 12 x145*x238 + 20 x145*x247 - 10 x146*x238 + 16 x147*x215
      - 18 x147*x233 - 2 x147*x246 + 12 x148*x153 - 14 x148*x168 - 10 x149*x184
      + 12 x149*x239 - 10 x150*x181 - 2 x150*x242 + 12 x151*x178 - 2 x151*x207
      + 16 x151*x212 - 10 x152*x156 - 16 x153*x172 + 8 x153*x197 + 10 x153*x247
      - 2 x154*x165 - 16 x154*x169 - 8 x154*x190 - 10 x155*x157 + 20 x155*x207
      + 18 x155*x235 + 20 x156*x177 - 18 x156*x213 - 18 x156*x229 - 8 x157*x159
      - 18 x157*x189 + 16 x157*x229 - 10 x158*x227 - 10 x158*x232 - 6 x159*x176
      + 20 x159*x180 - 12 x159*x194 + 10 x160*x228 - 2 x160*x233 + 4 x161*x166
      - 4 x161*x168 + 4 x162*x187 + 14 x163*x192 - 14 x164*x181 + 16 x164*x195
      + 14 x165*x191 - 12 x165*x218 + 14 x165*x222 - 8 x166*x199 + 16 x166*x243
      + 10 x167*x224 + 16 x167*x249 + 10 x168*x222 - 2 x169*x186 - 2 x169*x193
      - 18 x171*x177 - 6 x171*x212 - 10 x171*x249 + 2 x173*x219 + 18 x174*x214
      + 14 x175*x225 + 6 x175*x245 - 12 x176*x206 + 20 x178*x202 - 2 x179*x198
      + 6 x179*x242 + 12 x180*x191 - 10 x180*x230 + 2 x181*x241 - 16 x182*x196
      - 2 x182*x227 - 20 x182*x230 + 16 x183*x234 - 4 x184*x194 - 16 x184*x209
      - 20 x185*x234 + 4 x187*x201 + 4 x187*x228 + 16 x188*x207 + 14 x190*x195
      + 2 x192*x201 - 6 x193*x197 - 4 x193*x216 - 10 x196*x237 - 4 x197*x214
      + 12 x197*x230 - 4 x199*x210 + 12 x199*x211 - 4 x199*x219 - 4 x200*x240
      - 2 x201*x228 + 10 x203*x211 + 2 x203*x216 + 2 x203*x222 + 10 x204*x219
      - 2 x204*x233 + 10 x205*x238 - 2 x206*x219 - 20 x206*x225 + 12 x206*x235
      + 10 x210*x246 + 6 x213*x216 + 14 x215*x243 + 14 x215*x246 - 16 x216*x244
      - 18 x217*x220 - 14 x217*x241 + 12 x217*x242 + 10 x221*x231 + 6 x221*x245
      - 18 x222*x236 + 14 x225*x248 - 12 x226*x231 + 6 x232*x239 + 14 x234*x238
      + 18 x241*x245 ]/2
Subject To
 c0: - x51 - x96 + 2 x122 - 2 x145 + x209 = 0
 c1: - 2 x58 - 2 x143 + 2 x161 + x194 + 2 x238 = -2
 c2: - 2 x35 + 2 x63 - x106 + 2 x147 - x196 = -2
 c3: x73 + x125 - x218 + x219 - x240 = -2
 c4: 2 x104 + x142 + x175 - x214 - 2 x239 = 0
 c5: 2 x53 + x84 - 2 x129 + 2 x151 + 2 x202 = -2
 c6: x66 - 2 x94 - x108 - 2 x141 + x223 = 1
 c7: 2 x27 + x43 + 2 x134 + x199 - x227 = 1
 c8: - 2 x33 + x68 - x72 - x82 + x130 = -2
 c9: - x118 - 2 x169 + x194 + x216 - x220 = 1
 c10: x38 + 2 x148 + 2 x230 - x239 + x247 = 0
 c11: - x23 + 2 x115 + x185 + 2 x197 - 2 x212 = 1
 c12: x39 - x73 + x91 - x98 - x107 = -1
 c13: x44 - x87 + 2 x137 - x182 + x220 = 0
 c14: - 2 x86 + x128 + 2 x131 - x203 - 2 x224 = -2
 c15: - x75 + x134 - 2 x143 - 2 x164 + x207 = -2
 c16: - x61 + x62 - x131 - 2 x156 + x180 = 0
 c17: x28 - x40 - 2 x51 + 2 x126 + x129 = 1
 c18: x3 + 2 x12 - 2 x73 - x75 - 2 x204 = 1
 c19: 2 x16 - 2 x85 - 2 x92 - x102 + x207 = -1
 c20: x5 - 2 x115 + 2 x171 + 2 x208 + x216 = 1
 c21: x58 - x103 - x168 + x171 + x198 = -2
 c22: x7 + x54 + x56 + x91 - 2 x247 = -1
 c23: x21 + x22 + 2 x36 - 2 x58 - 2 x121 = 0
 c24: 2 x3 + 2 x38 - 2 x94 + 2 x130 - 2 x166 = -2

Bounds
 0 <= x0 <= 1
 0 <= x1 <= 1
 0 <= x2 <= 1
 0 <= x3 <= 1
 0 <= x4 <= 1
 0 <= x5 <= 1
 0 <= x6 <= 1
 0 <= x7 <= 1
 0 <= x8 <= 1
 0 <= x9 <= 1
 0 <= x10 <= 1
 0 <= x11 <= 1
 0 <= x12 <= 1
 0 <= x13 <= 1
 0 <= x14 <= 1
 0 <= x15 <= 1
 0 <= x16 <= 1
 0 <= x17 <= 1
 0 <= x18 <= 1
 0 <= x19 <= 1
 0 <= x20 <= 1
 0 <= x21 <= 1
 0 <= x22 <= 1
 0 <= x23 <= 1
 0 <= x24 <= 1
 0 <= x25 <= 1
 0 <= x26 <= 1
 0 <= x27 <= 1
 0 <= x28 <= 1
 0 <= x29 <= 1
 0 <= x30 <= 1
 0 <= x31 <= 1
 0 <= x32 <= 1
 0 <= x33 <= 1
 0 <= x34 <= 1
 0 <= x35 <= 1
 0 <= x36 <= 1
 0 <= x37 <= 1
 0 <= x38 <= 1
 0 <= x39 <= 1
 0 <= x40 <= 1
 0 <= x41 <= 1
 0 <= x42 <= 1
 0 <= x43 <= 1
 0 <= x44 <= 1
 0 <= x45 <= 1
 0 <= x46 <= 1
 0 <= x47 <= 1
 0 <= x48 <= 1
 0 <= x49 <= 1
 0 <= x50 <= 1
 0 <= x51 <= 1
 0 <= x52 <= 1
 0 <= x53 <= 1
 0 <= x54 <= 1
 0 <= x55 <= 1
 0 <= x56 <= 1
 0 <= x57 <= 1
 0 <= x58 <= 1
 0 <= x59 <= 1
 0 <= x60 <= 1
 0 <= x61 <= 1
 0 <= x62 <= 1
 0 <= x63 <= 1
 0 <= x64 <= 1
 0 <= x65 <= 1
 0 <= x66 <= 1
 0 <= x67 <= 1
 0 <= x68 <= 1
 0 <= x69 <= 1
 0 <= x70 <= 1
 0 <= x71 <= 1
 0 <= x72 <= 1
 0 <= x73 <= 1
 0 <= x74 <= 1
 0 <= x75 <= 1
 0 <= x76 <= 1
 0 <= x77 <= 1
 0 <= x78 <= 1
 0 <= x79 <= 1
 0 <= x80 <= 1
 0 <= x81 <= 1
 0 <= x82 <= 1
 0 <= x83 <= 1
 0 <= x84 <= 1
 0 <= x85 <= 1
 0 <= x86 <= 1
 0 <= x87 <= 1
 0 <= x88 <= 1
 0 <= x89 <= 1
 0 <= x90 <= 1
 0 <= x91 <= 1
 0 <= x92 <= 1
 0 <= x93 <= 1
 0 <= x94 <= 1
 0 <= x95 <= 1
 0 <= x96 <= 1
 0 <= x97 <= 1
 0 <= x98 <= 1
 0 <= x99 <= 1
 0 <= x100 <= 1
 0 <= x101 <= 1
 0 <= x102 <= 1
 0 <= x103 <= 1
 0 <= x104 <= 1
 0 <= x105 <= 1
 0 <= x106 <= 1
 0 <= x107 <= 1
 0 <= x108 <= 1
 0 <= x109 <= 1
 0 <= x110 <= 1
 0 <= x111 <= 1
 0 <= x112 <= 1
 0 <= x113 <= 1
 0 <= x114 <= 1
 0 <= x115 <= 1
 0 <= x116 <= 1
 0 <= x117 <= 1
 0 <= x118 <= 1
 0 <= x119 <= 1
 0 <= x120 <= 1
 0 <= x121 <= 1
 0 <= x122 <= 1
 0 <= x123 <= 1
 0 <= x124 <= 1
 0 <= x125 <= 1
 0 <= x126 <= 1
 0 <= x127 <= 1
 0 <= x128 <= 1
 0 <= x129 <= 1
 0 <= x130 <= 1
 0 <= x131 <= 1
 0 <= x132 <= 1
 0 <= x133 <= 1
 0 <= x134 <= 1
 0 <= x135 <= 1
 0 <= x136 <= 1
 0 <= x137 <= 1
 0 <= x138 <= 1
 0 <= x139 <= 1
 0 <= x140 <= 1
 0 <= x141 <= 1
 0 <= x142 <= 1
 0 <= x143 <= 1
 0 <= x144 <= 1
 0 <= x145 <= 1
 0 <= x146 <= 1
 0 <= x147 <= 1
 0 <= x148 <= 1
 0 <= x149 <= 1
 0 <= x150 <= 1
 0 <= x151 <= 1
 0 <= x152 <= 1
 0 <= x153 <= 1
 0 <= x154 <= 1
 0 <= x155 <= 1
 0 <= x156 <= 1
 0 <= x157 <= 1
 0 <= x158 <= 1
 0 <= x159 <= 1
 0 <= x160 <= 1
 0 <= x161 <= 1
 0 <= x162 <= 1
 0 <= x163 <= 1
 0 <= x164 <= 1
 0 <= x165 <= 1
 0 <= x166 <= 1
 0 <= x167 <= 1
 0 <= x168 <= 1
 0 <= x169 <= 1
 0 <= x170 <= 1
 0 <= x171 <= 1
 0 <= x172 <= 1
 0 <= x173 <= 1
 0 <= x174 <= 1
 0 <= x175 <= 1
 0 <= x176 <= 1
 0 <= x177 <= 1
 0 <= x178 <= 1
 0 <= x179 <= 1
 0 <= x180 <= 1
 0 <= x181 <= 1
 0 <= x182 <= 1
 0 <= x183 <= 1
 0 <= x184 <= 1
 0 <= x185 <= 1
 0 <= x186 <= 1
 0 <= x187 <= 1
 0 <= x188 <= 1
 0 <= x189 <= 1
 0 <= x190 <= 1
 0 <= x191 <= 1
 0 <= x192 <= 1
 0 <= x193 <= 1
 0 <= x194 <= 1
 0 <= x195 <= 1
 0 <= x196 <= 1
 0 <= x197 <= 1
 0 <= x198 <= 1
 0 <= x199 <= 1
 0 <= x200 <= 1
 0 <= x201 <= 1
 0 <= x202 <= 1
 0 <= x203 <= 1
 0 <= x204 <= 1
 0 <= x205 <= 1
 0 <= x206 <= 1
 0 <= x207 <= 1
 0 <= x208 <= 1
 0 <= x209 <= 1
 0 <= x210 <= 1
 0 <= x211 <= 1
 0 <= x212 <= 1
 0 <= x213 <= 1
 0 <= x214 <= 1
 0 <= x215 <= 1
 0 <= x216 <= 1
 0 <= x217 <= 1
 0 <= x218 <= 1
 0 <= x219 <= 1
 0 <= x220 <= 1
 0 <= x221 <= 1
 0 <= x222 <= 1
 0 <= x223 <= 1
 0 <= x224 <= 1
 0 <= x225 <= 1
 0 <= x226 <= 1
 0 <= x227 <= 1
 0 <= x228 <= 1
 0 <= x229 <= 1
 0 <= x230 <= 1
 0 <= x231 <= 1
 0 <= x232 <= 1
 0 <= x233 <= 1
 0 <= x234 <= 1
 0 <= x235 <= 1
 0 <= x236 <= 1
 0 <= x237 <= 1
 0 <= x238 <= 1
 0 <= x239 <= 1
 0 <= x240 <= 1
 0 <= x241 <= 1
 0 <= x242 <= 1
 0 <= x243 <= 1
 0 <= x244 <= 1
 0 <= x245 <= 1
 0 <= x246 <= 1
 0 <= x247 <= 1
 0 <= x248 <= 1
 0 <= x249 <= 1

Binaries
 x0 x1 x2 x3 x4 x5 x6 x7 x8 x9 x10 x11 x12 x13 x14 x15 x16 x17 x18 x19 x20 x21
 x22 x23 x24 x25 x26 x27 x28 x29 x30 x31 x32 x33 x34 x35 x36 x37 x38 x39 x40 x41
 x42 x43 x44 x45 x46 x47 x48 x49 x50 x51 x52 x53 x54 x55 x56 x57 x58 x59 x60 x61
 x62 x63 x64 x65 x66 x67 x68 x69 x70 x71 x72 x73 x74 x75 x76 x77 x78 x79 x80 x81
 x82 x83 x84 x85 x86 x87 x88 x89 x90 x91 x92 x93 x94 x95 x96 x97 x98 x99 x100
 x101 x102 x103 x104 x105 x106 x107 x108 x109 x110 x111 x112 x113 x114 x115 x116
 x117 x118 x119 x120 x121 x122 x123 x124 x125 x126 x127 x128 x129 x130 x131 x132
 x133 x134 x135 x136 x137 x138 x139 x140 x141 x142 x143 x144 x145 x146 x147 x148
 x149 x150 x151 x152 x153 x154 x155 x156 x157 x158 x159 x160 x161 x162 x163 x164
 x165 x166 x167 x168 x169 x170 x171 x172 x173 x174 x175 x176 x177 x178 x179 x180
 x181 x182 x183 x184 x185 x186 x187 x188 x189 x190 x191 x192 x193 x194 x195 x196
 x197 x198 x199 x200 x201 x202 x203 x204 x205 x206 x207 x208 x209 x210 x211 x212
 x213 x214 x215 x216 x217 x218 x219 x220 x221 x222 x223 x224 x225 x226 x227 x228
 x229 x230 x231 x232 x233 x234 x235 x236 x237 x238 x239 x240 x241 x242 x243 x244
 x245 x246 x247 x248 x249
End
